90 116992
24 46 18 85 72 39 35 42 67 5 8 26 4 89 73 32 33 29 20 2 50 45 60 55 90 31 10 21 53 64 9 56 36 54 28 68 80 16 77 11 75 49 70 15 3 7 1 43 65 82 41 30 66 83 13 37 81 14 62 87 38 69 84 19 78 6 63 57 12 17 48 88 59 58 74 51 47 44 71 79 86 27 23 76 61 52 40 34 22 25 
